(set-info :Origin "This instance was generated by: BanditFuzz-- an RL fuzzer for SMT solvers" )
(set-info :Author "Joe Scott, Fed Mora, Vijay Ganesh" )
(set-info :Contact "Joe Scott, joseph.scott@uwaterloo.ca")
(set-logic QF_BV)
(declare-const bool_0 Bool)
(declare-const bool_1 Bool)
(declare-const bool_2 Bool)
(declare-const bool_3 Bool)
(declare-const bool_4 Bool)
(declare-const bv_0 (_ BitVec 32))
(declare-const bv_1 (_ BitVec 32))
(declare-const bv_2 (_ BitVec 32))
(declare-const bv_3 (_ BitVec 32))
(declare-const bv_4 (_ BitVec 32))
(assert (bvsge (bvand (bvsrem bv_2 bv_0) (bvsdiv bv_2 bv_0)) (bvnand (bvashr #x01b58125  #x2d26664b ) (bvmul bv_0 #x54a56ca9 ))))
(assert (bvuge (bvnand (bvudiv #x56a03f4a  #x2e0dbddd ) (bvadd #x9454d079  #x88de4dac )) (bvurem (bvsdiv bv_0 #xd81cacd7 ) (bvudiv bv_3 #x4250a495 ))))
(assert (xor (bvslt (bvmul bv_2 bv_3) (bvurem #x88d4bfde  bv_3)) (xor (or true false) (not bool_0))))
(assert (bvule (bvsrem (bvxnor #x4bbad859  bv_3) (bvsmod #x6b5d04f7  #x599b48bb )) (bvsub (bvnand #xdd185cb7  #x666468e4 ) (bvsub #xbd58d5f4  bv_0))))
(assert (not (bvuge (bvsrem bv_0 bv_3) (bvsub #x534bf570  bv_1))))
(check-sat)
(exit)
